! Solving for graph /home/truongxuanhieu/CPLEX-CP-for-MinSpanLabeling/benchmarks/abp/S-sherman4.mtx.rnd
! Target value is set to 326
! Lower bound is set to 327
! Upper bound is set to 683
! Time limit is set to 1800
! Vertices mode is set to Has hole
 ! --------------------------------------------------- CP Optimizer 22.2.0.0 --
 ! Minimization problem - 547 variables, 1888 constraints, 1 phase
 ! TimeLimit            = 1800
 ! LogVerbosity         = Terse
 ! Initial process time : 0.03s (0.03s extraction + 0.00s propagation)
 !  . Log search space  : 5143.2 (before), 5143.2 (after)
 !  . Memory usage      : 929.8 kB (before), 929.8 kB (after)
 ! Using parallel search with 8 workers.
 ! ----------------------------------------------------------------------------
 !          Best Branches  Non-fixed    W       Branch decision
                        0        547                 -
 + New bound is 327
 *           327        1  0.15s        1      (gap is 0.00%)
 ! ----------------------------------------------------------------------------
 ! Search completed, 1 solution found.
 ! Best objective         : 327 (optimal - effective tol. is 0)
 ! Best bound             : 327
 ! ----------------------------------------------------------------------------
 ! Number of branches     : 4008
 ! Number of fails        : 114
 ! Total memory usage     : 48.2 MB (47.4 MB CP Optimizer + 0.8 MB Concert)
 ! Time spent in solve    : 0.15s (0.12s engine + 0.03s extraction)
 ! Search speed (br. / s) : 33400.0
 ! ----------------------------------------------------------------------------
! --------------------------------------------------------
! Best span = 327
! Labeling: 327 327 1 1 1 327 327 327 327 327 1 327 327 1 327 327 327 1 1 1 327 1 1 327 1 1 327 327 327 1 1 1 1 1 327 327 1 327 1 327 327 1 327 1 1 1 1 1 1 1 1 1 327 327 1 327 327 1 1 1 1 1 1 1 1 327 1 327 1 327 1 327 327 327 327 327 327 1 327 327 1 1 327 1 327 327 1 327 327 327 327 327 1 1 327 1 327 1 1 1 1 327 327 1 1 1 1 327 1 327 1 327 327 327 327 1 1 1 1 1 327 1 1 1 1 1 1 327 1 1 327 1 1 1 1 327 327 1 327 1 1 1 327 327 327 327 327 327 1 327 327 1 327 327 1 1 1 1 327 327 327 327 1 327 1 1 327 1 327 327 327 327 1 1 327 1 1 1 327 327 327 327 327 327 327 1 1 1 1 327 327 1 327 1 1 1 327 327 327 1 327 327 327 1 1 1 327 327 1 327 327 1 327 1 327 327 1 327 1 1 1 1 327 327 327 1 327 1 1 327 1 327 327 1 1 1 1 327 327 327 1 1 327 327 1 1 1 1 327 327 327 327 1 1 1 1 327 1 1 327 327 1 327 327 1 1 1 1 1 1 327 1 1 327 327 327 1 327 1 1 1 327 1 327 1 1 327 1 1 327 327 1 1 1 1 1 327 327 1 1 327 327 327 327 327 1 327 327 327 327 1 1 327 1 327 1 327 327 1 327 1 1 327 327 1 327 327 1 1 327 327 327 1 1 1 1 1 1 327 327 1 1 327 1 1 327 1 327 1 327 327 327 1 327 1 327 327 327 327 327 327 327 327 1 327 1 1 1 1 327 1 327 327 327 327 1 327 327 1 327 327 327 1 1 1 327 1 327 327 327 327 1 327 1 1 1 327 327 327 1 1 1 327 327 1 327 1 327 327 1 327 1 1 1 1 327 327 327 1 327 327 327 327 1 1 1 327 327 327 327 1 327 327 1 1 1 1 327 1 1 327 327 1 327 327 327 1 327 327 1 327 1 1 1 1 327 327 327 327 327 1 1 327 327 1 327 1 1 1 1 327 1 1 327 327 1 327 1 327 1 1 327 327 1 327 327 327 327 1 327 327 327 327 1 327 1 327 1 327 327 1 327 1 1 1 1 1 1 327 1 1 1 1 1 1 1 327 1 327 1 327 327 327 1 327 327 1 1 1 327 1 327 327 1 1 327 327 327 1 327 327 327 327 327 1 1 
! -------------------------------------------------------- 
